z1,z2,z3,nondominated
4,4,3,0
4,7,3,0
2,6,4,0
1,6,7,0
2,7,4,0
2,4,7,0
10,3,3,0
2,5,8,0
8,3,3,0
4,3,5,0
1,6,9,0
2,5,5,0
6,1,8,0
8,1,6,0
2,8,5,0
3,10,4,0
1,7,5,0
6,8,1,0
3,7,3,0
6,2,5,0
5,5,2,0
6,3,4,0
7,5,2,0
1,7,8,0
3,4,4,0
8,4,2,0
7,4,2,0
9,1,6,0
8,1,6,0
4,2,9,0
6,1,9,0
6,1,7,0
6,3,4,0
6,6,1,0
2,8,4,0
4,4,4,0
1,1,1,0
1,1,1,0
1,1,1,0
1,1,1,0
1,1,1,0
1,1,1,0
